LatticeConstant 1.0 Ang
%block LatticeVectors
         11.776282984       0.000000000       0.000000000
          0.000000000      11.030875126       0.000000000
          0.000000000       0.000000000       6.266317315
%endblock LatticeVectors
ZM.UnitsLength Ang
ZM.UnitsAngle deg
%block Zmatrix
molecule_cartesian
 2   0   0   0      2.50539143      3.68000000      6.90322683   1   0   1
 2   1   0   0      1.39783757     90.00000000     60.00000000   0   0   0
 2   2   1   0      1.39783757    120.00029993     90.00000000   0   1   0
 2   3   2   1      1.39783757    120.00029993      0.00000000   0   0   0
 2   4   3   2      1.39783757    120.00029993      0.00000000   0   0   0
 2   5   4   3      1.39783757    120.00029993      0.00000000   0   0   0
 1   1   2   3      1.10817512    119.99394691    180.00000000   1   1   0
 1   2   1   7      1.10817512    119.99394691      0.00000000   0   0   0
 1   3   2   8      1.10817512    119.99394691      0.00000000   0   0   0
 1   4   3   9      1.10817512    119.99394691      0.00000000   0   0   0
 1   5   4  10      1.10817512    119.99394691      0.00000000   0   0   0
 1   6   5  11      1.10817512    119.99394691      0.00000000   0   0   0
%endblock Zmatrix
